param n := 120;
param c := 10000
param : V : p w :=
   0	  73	 394
   1	  74	 280
   2	  18	 326
   3	  62	 370
   4	  12	 284
   5	  18	 346
   6	  36	 427
   7	  25	 259
   8	  82	 314
   9	  78	 430
  10	  95	 270
  11	  42	 300
  12	  17	 462
  13	  36	 261
  14	  78	 277
  15	  16	 356
  16	  20	 292
  17	  95	 352
  18	  70	 498
  19	  99	 250
  20	  73	 252
  21	  61	 432
  22	   9	 276
  23	  44	 292
  24	  28	 391
  25	  93	 252
  26	 100	 357
  27	  35	 397
  28	  15	 274
  29	   2	 329
  30	  71	 490
  31	  18	 251
  32	  95	 259
  33	  31	 408
  34	  78	 256
  35	  21	 336
  36	  30	 434
  37	  39	 262
  38	  67	 304
  39	  13	 482
  40	  59	 256
  41	  27	 262
  42	  59	 387
  43	  71	 275
  44	  83	 338
  45	   4	 362
  46	  37	 293
  47	  85	 345
  48	  48	 428
  49	  96	 284
  50	  75	 288
  51	  60	 408
  52	  70	 288
  53	  11	 304
  54	  39	 480
  55	  55	 250
  56	  18	 270
  57	  89	 394
  58	  55	 276
  59	  63	 330
  60	  59	 361
  61	  57	 253
  62	  35	 386
  63	  81	 375
  64	  29	 281
  65	  36	 344
  66	  67	 478
  67	  51	 251
  68	  50	 271
  69	  11	 478
  70	  21	 250
  71	  17	 272
  72	  56	 356
  73	  48	 276
  74	  37	 368
  75	  14	 387
  76	  55	 269
  77	  56	 344
  78	   7	 486
  79	  99	 252
  80	   5	 262
  81	  29	 414
  82	  83	 263
  83	   1	 323
  84	  17	 410
  85	  49	 250
  86	  38	 340
  87	  15	 400
  88	  81	 295
  89	  90	 305
  90	  51	 382
  91	  83	 282
  92	  41	 336
  93	  41	 434
  94	  25	 269
  95	  85	 297
  96	  79	 395
  97	  23	 278
  98	  97	 327
  99	  78	 353
 100	  93	 281
 101	  20	 366
 102	  54	 419
 103	  31	 285
 104	  42	 296
 105	  71	 362
 106	  10	 314
 107	  32	 324
 108	  32	 495
 109	  51	 251
 110	   1	 254
 111	  45	 499
 112	  98	 250
 113	  59	 251
 114	  30	 364
 115	  75	 289
 116	  42	 347
 117	  22	 498
 118	  65	 250
 119	  32	 252
;

set E :=
   0	   3
   0	  22
   0	  24
   0	  37
   0	  56
   0	  62
   0	  64
   0	  65
   0	 108
   0	 113
   1	  14
   1	  18
   1	  24
   1	  34
   1	  36
   1	  41
   1	  43
   1	  45
   1	  67
   1	  71
   1	  73
   1	  82
   1	  85
   1	 102
   1	 115
   1	 118
   2	  10
   2	  13
   2	  34
   2	  62
   2	  70
   2	  85
   2	  87
   2	  91
   2	  99
   2	 102
   2	 110
   2	 111
   3	   6
   3	  16
   3	  21
   3	  33
   3	  38
   3	  43
   3	  51
   3	  62
   3	  70
   3	  71
   3	  78
   3	 101
   3	 105
   3	 114
   4	  10
   4	  15
   4	  23
   4	  49
   4	  55
   4	  96
   4	  97
   4	 100
   4	 105
   5	   6
   5	  13
   5	  36
   5	  41
   5	  44
   5	  48
   5	  55
   5	  58
   5	  67
   5	  68
   5	  76
   5	  85
   5	  97
   5	 103
   5	 110
   6	  11
   6	  16
   6	  29
   6	  44
   6	  45
   6	  50
   6	  55
   6	  68
   6	  72
   6	  77
   6	  81
   6	  85
   6	 103
   6	 108
   7	  26
   7	  48
   7	  59
   7	  66
   7	  73
   7	  74
   7	  77
   7	  92
   7	  93
   7	 100
   7	 103
   7	 109
   8	  35
   8	  55
   8	  57
   8	  63
   8	  64
   8	  76
   8	  88
   8	  92
   8	  95
   8	 107
   8	 108
   8	 115
   8	 116
   9	  12
   9	  13
   9	  19
   9	  28
   9	  51
   9	  57
   9	  71
   9	  72
   9	  76
   9	  77
   9	  85
   9	  89
   9	  91
   9	  95
   9	 105
   9	 115
  10	  38
  10	  40
  10	  82
  10	  85
  10	  87
  10	  90
  10	  97
  10	 110
  10	 117
  11	  20
  11	  30
  11	  37
  11	  55
  11	  72
  11	 104
  11	 117
  12	  16
  12	  37
  12	  48
  12	  50
  12	  86
  12	  87
  12	  97
  12	 104
  12	 106
  12	 107
  12	 109
  13	  15
  13	  32
  13	  48
  13	  55
  13	  70
  13	  72
  13	  86
  13	  97
  13	 100
  13	 110
  14	  24
  14	  37
  14	  54
  14	  59
  14	  62
  14	  63
  14	  71
  14	  84
  14	  86
  14	  89
  14	  98
  14	 109
  14	 116
  14	 119
  15	  22
  15	  26
  15	  40
  15	  47
  15	  62
  15	  66
  15	 104
  16	  17
  16	  21
  16	  40
  16	  45
  16	  53
  16	  61
  16	  83
  16	  94
  16	 102
  16	 111
  16	 118
  17	  18
  17	  25
  17	  43
  17	  60
  17	  66
  17	  68
  17	  74
  17	  75
  17	  76
  17	  86
  17	  93
  17	 101
  17	 110
  18	  47
  18	  52
  18	  61
  18	  83
  18	  84
  18	  90
  18	  95
  18	 109
  19	  34
  19	 103
  20	  23
  20	  30
  20	  31
  20	  64
  20	  68
  20	  79
  20	  80
  20	  98
  20	 103
  20	 110
  21	  29
  21	  34
  21	  35
  21	  39
  21	  42
  21	  44
  21	  51
  21	  58
  21	  70
  21	  71
  21	  87
  21	 114
  22	  26
  22	  44
  22	  48
  22	  68
  22	  84
  22	 110
  23	  27
  23	  29
  23	  34
  23	  41
  23	  46
  23	  48
  23	  64
  23	  78
  23	  86
  23	  87
  23	 108
  23	 113
  23	 114
  24	  45
  24	  48
  24	  50
  24	  56
  24	  61
  24	  64
  24	  73
  24	  74
  24	  87
  24	  98
  24	 117
  25	  31
  25	  64
  25	  74
  25	  97
  25	 101
  25	 105
  25	 110
  26	  31
  26	  37
  26	  45
  26	  55
  26	  73
  26	  95
  26	 100
  26	 103
  26	 106
  26	 118
  27	  35
  27	  37
  27	  43
  27	  45
  27	  53
  27	  54
  27	  61
  27	  62
  27	  77
  27	  81
  27	  97
  27	  98
  27	  99
  27	 117
  28	  48
  28	  51
  28	  62
  28	  69
  28	  81
  28	 100
  28	 103
  28	 108
  28	 110
  29	  60
  29	  65
  29	  92
  29	  98
  29	 100
  29	 108
  29	 112
  30	  33
  30	  42
  30	  43
  30	  55
  30	  61
  30	  63
  30	  64
  30	  70
  30	  71
  30	  75
  30	  90
  30	 103
  30	 107
  30	 116
  31	  32
  31	  33
  31	  38
  31	  42
  31	  48
  31	  52
  31	  53
  31	  54
  31	  55
  31	  69
  31	  83
  31	  84
  31	  99
  31	 114
  31	 117
  32	  33
  32	  36
  32	  40
  32	  59
  32	  65
  33	  43
  33	  70
  33	  73
  33	  74
  33	  91
  33	  92
  33	  97
  33	  99
  33	 100
  33	 109
  34	  39
  34	  56
  34	  79
  34	  81
  34	  89
  34	  95
  34	 107
  34	 114
  35	  44
  35	  53
  35	  65
  35	  75
  35	  79
  35	  95
  35	 106
  35	 107
  35	 117
  36	  38
  36	  40
  36	  63
  36	  66
  36	  68
  36	  74
  36	  78
  36	  83
  36	  84
  36	 116
  37	  39
  37	  46
  37	  55
  37	  72
  37	  80
  37	  82
  37	  95
  37	  99
  37	 102
  37	 115
  37	 117
  38	  40
  38	  46
  38	  58
  38	  71
  38	 100
  39	  55
  39	  69
  39	  71
  39	  74
  39	  76
  39	  79
  39	  80
  39	  81
  39	  84
  39	 101
  39	 104
  40	  55
  40	  71
  40	  87
  40	  93
  40	  96
  40	  98
  40	 102
  40	 106
  40	 116
  41	  46
  41	  92
  41	  95
  41	 115
  41	 119
  42	  44
  42	  60
  42	  62
  42	 104
  43	  44
  43	  52
  43	  62
  43	  68
  43	  79
  43	  84
  43	 104
  43	 108
  44	  52
  44	  61
  44	  70
  44	  72
  44	  77
  44	  94
  44	  95
  44	 117
  45	  46
  45	  48
  45	  49
  45	  54
  45	  60
  45	  63
  45	  82
  45	 106
  45	 119
  46	  56
  46	  57
  46	  72
  46	  86
  46	 104
  46	 106
  46	 114
  47	  49
  47	  56
  47	  58
  47	  59
  47	  78
  47	  79
  47	  80
  47	  82
  47	 110
  47	 114
  47	 118
  48	  53
  48	  59
  48	  60
  48	  61
  48	  65
  48	  66
  48	  67
  48	 109
  49	  50
  49	  56
  49	  61
  49	  64
  49	  65
  49	  88
  49	 101
  49	 105
  49	 112
  49	 118
  50	  51
  50	  55
  50	  93
  50	 101
  50	 116
  51	  55
  51	  64
  51	  66
  51	  71
  51	  74
  51	  88
  51	  89
  51	 113
  52	  67
  52	  75
  52	  85
  52	 117
  53	  76
  53	  77
  53	  82
  53	  92
  53	  95
  53	  96
  53	 108
  53	 118
  53	 119
  54	  55
  54	  60
  54	 110
  55	  73
  55	  81
  55	  83
  55	  87
  55	  92
  55	  93
  55	 100
  55	 115
  56	  87
  56	  91
  56	 112
  57	  66
  57	  94
  57	  96
  57	  97
  57	  99
  57	 119
  58	  66
  58	  67
  58	  69
  58	  80
  58	  93
  58	 101
  59	 107
  59	 112
  59	 117
  60	  67
  60	  81
  60	  99
  60	 108
  61	  97
  61	  98
  61	 113
  61	 116
  62	  64
  62	  68
  62	  80
  62	  95
  62	  98
  62	 100
  63	  68
  63	  71
  63	  76
  63	  77
  63	  82
  63	  83
  63	 103
  64	  76
  64	  78
  64	  92
  64	  93
  64	 116
  65	  76
  65	  82
  65	  83
  65	  86
  65	  89
  65	  93
  65	  97
  65	 105
  65	 117
  65	 119
  66	  89
  66	  98
  67	  69
  67	 101
  67	 108
  68	  85
  68	  86
  68	  90
  68	  95
  68	 118
  69	  70
  69	  92
  69	  98
  69	 101
  69	 107
  69	 109
  69	 113
  69	 115
  70	  90
  70	 103
  70	 106
  70	 112
  71	  83
  72	  96
  72	 109
  73	  80
  73	 108
  74	  90
  74	 106
  74	 119
  75	  79
  75	  83
  75	  88
  75	 102
  75	 105
  76	  78
  76	  97
  76	  99
  76	 114
  77	  78
  77	  80
  77	  84
  77	 108
  77	 117
  78	  81
  78	  90
  78	  91
  78	  92
  78	 103
  78	 110
  80	 110
  80	 112
  80	 115
  81	  83
  81	 109
  81	 119
  82	  83
  82	  87
  82	  94
  82	 105
  82	 112
  83	  85
  83	 103
  84	  90
  84	  95
  85	  86
  85	  89
  85	  92
  85	 107
  85	 108
  86	 105
  86	 107
  86	 114
  86	 117
  86	 119
  87	 103
  87	 107
  88	  89
  88	 100
  88	 107
  88	 114
  88	 117
  89	  90
  89	  94
  89	  96
  89	 111
  89	 116
  89	 117
  89	 119
  90	  98
  90	 101
  90	 109
  91	 105
  92	 107
  92	 111
  92	 114
  93	  96
  93	 109
  93	 113
  94	 118
  95	 101
  95	 104
  95	 107
  96	 115
  97	  98
  97	 101
  98	 100
  98	 103
  98	 116
 100	 112
 100	 118
 100	 119
 101	 107
 101	 114
 101	 115
 102	 115
 102	 119
 103	 105
 104	 113
 104	 114
 106	 111
 106	 114
 108	 119
 109	 110
 109	 114
 109	 116
 111	 113
 111	 117
 112	 113
 114	 115
;
